cases/matpower/case3.m
ipopt
QCRM
[info | PowerModels]: extending matpower format with constant data: const_int
[info | PowerModels]: extending matpower format with constant data: const_float
[info | PowerModels]: extending matpower format with data: bus_data 3x3
[info | PowerModels]: extending matpower format with data: branch_names 3x3
[info | PowerModels]: extending matpower format with data: areas_cells 2x6
[info | PowerModels]: extending matpower format with data: areas_named_cells 2x6
[info | PowerModels]: extending matpower format with data: areas_named 2x3
[info | PowerModels]: extending matpower format with data: component 1x3
[info | PowerModels]: extending matpower format with data: areas 2x3
[info | PowerModels]: extending matpower format with constant data: const_str
[info | PowerModels]: extending matpower format with data: load_data 2x2
[info | PowerModels]: extending matpower format with data: branch_limit 3x3
[warn | PowerModels]: added zero cost function data for dclines
[info | PowerModels]: extending matpower format by appending matrix "branch_limit" in to "branch"
[info | PowerModels]: extending matpower format by appending matrix "branch_names" in to "branch"
[info | PowerModels]: extending matpower format by appending matrix "bus_data" in to "bus"
[warn | PowerModels]: no reference bus found
[warn | PowerModels]: no reference bus found, setting bus 1 as reference based on generator 1
[info | PowerModels]: removing 3 cost terms from generator 3: Float64[]
[info | PowerModels]: removing 3 cost terms from dcline 1: Float64[]

******************************************************************************
This program contains Ipopt, a library for large-scale nonlinear optimization.
 Ipopt is released as open source code under the Eclipse Public License (EPL).
         For more information visit http://projects.coin-or.org/Ipopt
******************************************************************************

This is Ipopt version 3.13.2, running with linear solver mumps.
NOTE: Other linear solvers might be more efficient (see Ipopt documentation).

Number of nonzeros in equality constraint Jacobian...:       96
Number of nonzeros in inequality constraint Jacobian.:      195
Number of nonzeros in Lagrangian Hessian.............:       29

Total number of variables............................:       51
                     variables with only lower bounds:        0
                variables with lower and upper bounds:       48
                     variables with only upper bounds:        0
Total number of equality constraints.................:       26
Total number of inequality constraints...............:       75
        inequality constraints with only lower bounds:       36
   inequality constraints with lower and upper bounds:        0
        inequality constraints with only upper bounds:       39

iter    objective    inf_pr   inf_du lg(mu)  ||d||  lg(rg) alpha_du alpha_pr  ls
   0  6.3949934e+00 1.20e+00 2.38e+01  -1.0 0.00e+00    -  0.00e+00 0.00e+00   0
   1  7.0069546e+01 1.13e+00 3.04e+01  -1.0 1.77e+00    -  5.90e-03 5.43e-02h  1
   2  4.5980517e+02 9.26e-01 2.46e+01  -1.0 1.76e+00    -  1.50e-02 1.84e-01h  1
   3  7.1871253e+02 8.35e-01 2.22e+01  -1.0 1.44e+00    -  1.71e-01 9.82e-02h  1
   4  2.1428226e+03 5.01e-01 1.49e+01  -1.0 1.30e+00    -  2.68e-01 4.00e-01h  1
   5  3.6943686e+03 2.53e-01 6.75e+00  -1.0 7.80e-01    -  6.34e-01 4.96e-01h  1
   6  3.9911397e+03 2.12e-01 1.15e+01  -1.0 3.72e-01    -  4.06e-01 1.61e-01h  1
   7  4.4710490e+03 1.50e-01 2.98e+01  -1.0 3.09e-01    -  8.54e-01 2.94e-01h  1
   8  4.7718551e+03 1.13e-01 3.30e+01  -1.0 2.39e-01    -  6.59e-01 2.47e-01h  1
   9  5.1005064e+03 7.38e-02 7.28e+01  -1.0 2.34e-01    -  9.12e-01 3.46e-01h  1
iter    objective    inf_pr   inf_du lg(mu)  ||d||  lg(rg) alpha_du alpha_pr  ls
  10  5.5082216e+03 2.84e-02 5.44e+01  -1.0 2.05e-01    -  1.00e+00 6.15e-01h  1
  11  5.7905942e+03 1.12e-15 9.64e-01  -1.0 8.96e-02    -  1.00e+00 1.00e+00h  1
  12  5.7834170e+03 2.28e-05 1.90e-01  -1.7 1.42e-02    -  1.00e+00 1.00e+00f  1
  13  5.7805852e+03 4.04e-16 1.23e-01  -2.5 6.35e-03    -  9.91e-01 1.00e+00f  1
  14  5.7803932e+03 4.56e-16 3.36e-03  -2.5 1.08e-03    -  1.00e+00 1.00e+00h  1
  15  5.7800527e+03 2.22e-16 5.49e-03  -3.8 7.84e-04    -  1.00e+00 9.97e-01f  1
  16  5.7800504e+03 7.00e-16 9.91e-04  -3.8 6.66e-04    -  1.00e+00 1.00e+00f  1
  17  5.7800321e+03 2.28e-09 6.89e-02  -5.7 3.57e-04    -  1.00e+00 9.60e-01f  1
  18  5.7800315e+03 4.97e-09 1.20e-04  -5.7 2.24e-04    -  1.00e+00 1.00e+00f  1
  19  5.7800315e+03 3.98e-16 1.45e-05  -5.7 7.70e-05    -  1.00e+00 1.00e+00h  1
iter    objective    inf_pr   inf_du lg(mu)  ||d||  lg(rg) alpha_du alpha_pr  ls
  20  5.7800313e+03 1.11e-15 6.55e+00  -8.6 2.78e-05    -  1.00e+00 7.11e-01h  1
  21  5.7800313e+03 3.59e-11 1.44e+01  -8.6 1.01e-05    -  8.06e-01 1.00e+00f  1
  22  5.7800313e+03 3.58e-15 3.76e-01  -8.6 6.28e-08    -  9.16e-01 9.76e-01h  1
  23  5.7800313e+03 1.06e-15 1.39e-10  -8.6 1.60e-09    -  1.00e+00 1.00e+00f  1

Number of Iterations....: 23

                                   (scaled)                 (unscaled)
Objective...............:   1.1560062560424446e+03    5.7800312802122226e+03
Dual infeasibility......:   1.3880052662784692e-10    6.9400263313923460e-10
Constraint violation....:   1.0555792351318871e-15    1.0555792351318871e-15
Complementarity.........:   2.6586733413684974e-09    1.3293366706842486e-08
Overall NLP error.......:   2.6586733413684974e-09    1.3293366706842486e-08


Number of objective function evaluations             = 24
Number of objective gradient evaluations             = 24
Number of equality constraint evaluations            = 24
Number of inequality constraint evaluations          = 24
Number of equality constraint Jacobian evaluations   = 24
Number of inequality constraint Jacobian evaluations = 24
Number of Lagrangian Hessian evaluations             = 23
Total CPU secs in IPOPT (w/o function evaluations)   =      0.267
Total CPU secs in NLP function evaluations           =      0.209

EXIT: Optimal Solution Found.
Time to Solution........:1.2221031188964844
